71 6
85 47
6 141
65 8
23 42
32 18
18 42
92 28
99 53
99 33
26 119
12 134
22 39
18 14
82 42
18 70
3 25
26 127
39 50
11 189
69 40
11 133
11 74
19 51
4 186
23 35
38 7
3 126
13 117
34 25
89 5
88 2
60 20
4 88
40 116
3 52
46 100
56 22
2 53
38 71
18 90
45 80
10 128
28 56
2 8
19 163
6 58
55 80
18 57
40 100
10 141
16 127
24 158
83 8
14 123
23 134
69 49
60 65
59 60
59 61
3 10
47 65
100 30
27 73
35 9
31 18
52 52
16 144
23 3
24 131
97 28
19 109
11 96
43 43
65 12
40 92
25 169
18 84
86 6
67 86
44 70
35 44
31 106
11 39
86 19
4 51
18 172
84 7
25 70
58 6
11 155
76 54
100 12
36 20
50 95
38 153
11 30
39 114
73 4
3 128
